\ LP format - for model browsing. Use MPS format to capture full model detail.
Minimize
  q_1 + theta_2
Subject To
 R0: 10 q_1 + theta_2 >= 117.5
 R1: 5 q_1 + theta_2 >= 93
 R2: - q_1 + theta_2 >= 17.5
Bounds
End
